words_hard_train/9831.qaiger
aag 104 16 0 1 88
2
4
8
12
16
20
24
40
72
76
78
82
86
90
94
98
208
6 3 5
10 6 9
14 10 13
18 14 17
22 18 21
26 22 25
28 23 24
30 27 29
32 11 12
34 33 15
36 2 4
38 37 7
42 36 41
44 39 43
46 7 8
48 47 11
50 44 49
52 35 50
54 15 16
56 55 19
58 52 57
60 19 20
62 23 61
64 58 63
66 30 65
68 31 64
70 67 69
74 71 73
80 76 78
84 80 82
88 84 86
92 88 90
96 92 94
100 96 98
102 75 101
104 93 95
106 105 97
108 53 56
110 109 59
112 107 110
114 59 62
116 115 65
118 97 99
120 119 101
122 116 121
124 113 123
126 106 111
128 34 51
130 129 53
132 89 91
134 133 93
136 131 134
138 127 137
140 45 48
142 141 51
144 85 87
146 145 89
148 142 147
150 41 2
152 151 38
154 153 43
156 151 81
158 3 79
160 41 76
162 158 161
164 156 163
166 164 82
168 155 167
170 81 83
172 171 85
174 173 165
176 169 175
178 143 146
180 177 179
182 149 181
184 130 135
186 182 185
188 138 187
190 124 189
192 117 120
194 191 193
196 102 194
198 195 100
200 74 198
202 197 201
204 70 72
206 204 199
208 202 207
i0 1 x1[1]
i1 1 x1[2]
i2 1 x1[3]
i3 1 x1[4]
i4 1 x1[5]
i5 1 x1[6]
i6 1 x1[7]
i7 1 x1[0]
i8 2 y1[7]
i9 2 y1[0]
i10 2 y1[1]
i11 2 y1[2]
i12 2 y1[3]
i13 2 y1[4]
i14 2 y1[5]
i15 2 y1[6]
o0 bv[0]
c
simplified
  >=
    subtract
      -131
      subtract
        1 x1
        1
    invert
      2 y1
