words_hard_train/9831.qaiger.qdimacs
p cnf 104 265
a 1 2 4 6 8 10 12 20 0
e 3 5 7 9 11 13 14 15 16 17 18 19 21 22 23 24 25 26 27 28 29 30 31 32 33 34 35 36 37 38 39 40 41 42 43 44 45 46 47 48 49 50 51 52 53 54 55 56 57 58 59 60 61 62 63 64 65 66 67 68 69 70 71 72 73 74 75 76 77 78 79 80 81 82 83 84 85 86 87 88 89 90 91 92 93 94 95 96 97 98 99 100 101 102 103 104 0
1 2 3 0
-1 -3 0
-2 -3 0
-3 4 5 0
3 -5 0
-4 -5 0
-5 6 7 0
5 -7 0
-6 -7 0
-7 8 9 0
7 -9 0
-8 -9 0
-9 10 11 0
9 -11 0
-10 -11 0
-11 12 13 0
11 -13 0
-12 -13 0
11 -12 14 0
-11 -14 0
12 -14 0
13 14 15 0
-13 -15 0
-14 -15 0
5 -6 16 0
-5 -16 0
6 -16 0
16 7 17 0
-16 -17 0
-7 -17 0
-1 -2 18 0
1 -18 0
2 -18 0
18 3 19 0
-18 -19 0
-3 -19 0
-18 20 21 0
18 -21 0
-20 -21 0
19 21 22 0
-19 -22 0
-21 -22 0
3 -4 23 0
-3 -23 0
4 -23 0
23 5 24 0
-23 -24 0
-5 -24 0
-22 24 25 0
22 -25 0
-24 -25 0
17 -25 26 0
-17 -26 0
25 -26 0
7 -8 27 0
-7 -27 0
8 -27 0
27 9 28 0
-27 -28 0
-9 -28 0
-26 28 29 0
26 -29 0
-28 -29 0
9 -10 30 0
-9 -30 0
10 -30 0
11 30 31 0
-11 -31 0
-30 -31 0
-29 31 32 0
29 -32 0
-31 -32 0
-15 32 33 0
15 -33 0
-32 -33 0
15 -32 34 0
-15 -34 0
32 -34 0
33 34 35 0
-33 -35 0
-34 -35 0
35 36 37 0
-35 -37 0
-36 -37 0
-38 -39 40 0
38 -40 0
39 -40 0
-40 -41 42 0
40 -42 0
41 -42 0
-42 -43 44 0
42 -44 0
43 -44 0
-44 -45 46 0
44 -46 0
45 -46 0
-46 -47 48 0
46 -48 0
47 -48 0
-48 -49 50 0
48 -50 0
49 -50 0
37 50 51 0
-37 -51 0
-50 -51 0
46 47 52 0
-46 -52 0
-47 -52 0
52 48 53 0
-52 -53 0
-48 -53 0
26 -28 54 0
-26 -54 0
28 -54 0
54 29 55 0
-54 -55 0
-29 -55 0
53 -55 56 0
-53 -56 0
55 -56 0
29 -31 57 0
-29 -57 0
31 -57 0
57 32 58 0
-57 -58 0
-32 -58 0
48 49 59 0
-48 -59 0
-49 -59 0
59 50 60 0
-59 -60 0
-50 -60 0
-58 60 61 0
58 -61 0
-60 -61 0
56 61 62 0
-56 -62 0
-61 -62 0
-53 55 63 0
53 -63 0
-55 -63 0
-17 25 64 0
17 -64 0
-25 -64 0
64 26 65 0
-64 -65 0
-26 -65 0
44 45 66 0
-44 -66 0
-45 -66 0
66 46 67 0
-66 -67 0
-46 -67 0
65 -67 68 0
-65 -68 0
67 -68 0
63 68 69 0
-63 -69 0
-68 -69 0
22 -24 70 0
-22 -70 0
24 -70 0
70 25 71 0
-70 -71 0
-25 -71 0
42 43 72 0
-42 -72 0
-43 -72 0
72 44 73 0
-72 -73 0
-44 -73 0
-71 73 74 0
71 -74 0
-73 -74 0
20 -1 75 0
-20 -75 0
1 -75 0
75 -19 76 0
-75 -76 0
19 -76 0
76 21 77 0
-76 -77 0
-21 -77 0
75 40 78 0
-75 -78 0
-40 -78 0
1 39 79 0
-1 -79 0
-39 -79 0
20 -38 80 0
-20 -80 0
38 -80 0
-79 80 81 0
79 -81 0
-80 -81 0
-78 81 82 0
78 -82 0
-81 -82 0
-82 -41 83 0
82 -83 0
41 -83 0
77 83 84 0
-77 -84 0
-83 -84 0
40 41 85 0
-40 -85 0
-41 -85 0
85 42 86 0
-85 -86 0
-42 -86 0
86 82 87 0
-86 -87 0
-82 -87 0
84 87 88 0
-84 -88 0
-87 -88 0
71 -73 89 0
-71 -89 0
73 -89 0
88 89 90 0
-88 -90 0
-89 -90 0
74 90 91 0
-74 -91 0
-90 -91 0
-65 67 92 0
65 -92 0
-67 -92 0
-91 92 93 0
91 -93 0
-92 -93 0
-69 93 94 0
69 -94 0
-93 -94 0
-62 94 95 0
62 -95 0
-94 -95 0
58 -60 96 0
-58 -96 0
60 -96 0
95 96 97 0
-95 -97 0
-96 -97 0
-51 -97 98 0
51 -98 0
97 -98 0
97 -50 99 0
-97 -99 0
50 -99 0
-37 -99 100 0
37 -100 0
99 -100 0
98 100 101 0
-98 -101 0
-100 -101 0
-35 -36 102 0
35 -102 0
36 -102 0
-102 99 103 0
102 -103 0
-99 -103 0
-101 103 104 0
101 -104 0
-103 -104 0
104 0
